SDVRP instances/custom_instances/p03_16_split0.vrp
NAME:p03_16_split
BEST_KNOWN: 0
COMMENT: 0
DIMENSION: 491
CAPACITY: 200
EDGE_WEIGHT_FORMAT: FUNCTION
EDGE_WEIGHT_TYPE: EXACT_2D
NODE_COORD_SECTION
1 0.00000 0.00000
2 -7 15
3 -7 15
4 -7 15
5 -7 15
6 -36 33
7 -36 33
8 -36 33
9 -36 33
10 -36 33
11 -33 -39
12 -2 11
13 -2 11
14 -2 11
15 -2 11
16 -2 11
17 -2 11
18 -2 11
19 42 -24
20 42 -24
21 42 -24
22 42 -24
23 42 -24
24 42 -24
25 42 -24
26 42 -24
27 -19 32
28 -19 32
29 -19 32
30 -19 32
31 -19 32
32 -19 32
33 -19 32
34 13 -40
35 13 -40
36 13 -40
37 13 -40
38 13 -40
39 13 -40
40 33 -15
41 33 -15
42 33 -15
43 33 -15
44 33 -15
45 33 -15
46 -17 -1
47 -17 -1
48 -17 -1
49 -17 -1
50 -17 -1
51 -16 12
52 -16 12
53 -16 12
54 -16 12
55 -16 12
56 -16 12
57 -21 21
58 -21 21
59 -21 21
60 -21 21
61 -50 -12
62 -50 -12
63 -50 -12
64 -50 -12
65 -50 -12
66 -50 -12
67 13 44
68 13 44
69 13 44
70 13 44
71 13 44
72 13 44
73 -34 -46
74 -34 -46
75 -34 -46
76 -34 -46
77 -34 -46
78 -33 17
79 -33 17
80 -1 11
81 -1 11
82 -1 11
83 -1 11
84 -1 11
85 20 -33
86 20 -33
87 20 -33
88 20 -33
89 20 -33
90 20 -33
91 20 -33
92 20 -33
93 -10 -9
94 -10 -9
95 -10 -9
96 -10 -9
97 -10 -9
98 -3 -9
99 -3 -9
100 -3 -9
101 -3 -9
102 -3 -9
103 -3 -9
104 -3 -9
105 -22 -12
106 -22 -12
107 -22 -12
108 -17 38
109 -17 38
110 -17 38
111 14 -5
112 14 -5
113 14 -5
114 14 -5
115 14 -5
116 15 6
117 15 6
118 15 6
119 15 6
120 32 -7
121 32 -7
122 32 -7
123 32 -7
124 32 -7
125 31 2
126 31 2
127 -10 -43
128 -10 -43
129 -10 -43
130 -49 -36
131 -49 -36
132 -49 -36
133 -49 -36
134 -49 -36
135 -49 -36
136 -49 -36
137 -17 46
138 -17 46
139 -17 46
140 -17 46
141 -17 46
142 -17 46
143 26 -37
144 26 -37
145 26 -37
146 26 -37
147 26 -37
148 -20 1
149 -20 1
150 -20 1
151 -20 1
152 -20 1
153 -20 1
154 -20 1
155 43 -15
156 43 -15
157 43 -15
158 43 -15
159 43 -15
160 -31 37
161 -31 37
162 -31 37
163 -31 37
164 -31 37
165 32 -21
166 32 -21
167 32 -21
168 32 -21
169 1 8
170 1 8
171 1 8
172 35 -42
173 35 -42
174 35 -42
175 35 -42
176 35 -42
177 3 9
178 3 9
179 3 9
180 3 9
181 21 28
182 21 28
183 21 28
184 21 28
185 21 28
186 -40 -15
187 -40 -15
188 -40 -15
189 -40 -15
190 35 -17
191 35 -17
192 35 -17
193 -15 -41
194 -15 -41
195 -15 -41
196 -15 -41
197 -15 -41
198 -15 -41
199 -15 -41
200 -26 7
201 -26 7
202 -26 7
203 -26 7
204 -26 7
205 3 31
206 3 31
207 3 31
208 -44 -14
209 -44 -14
210 -44 -14
211 -44 -14
212 49 -21
213 49 -21
214 49 -21
215 49 -21
216 42 19
217 42 19
218 42 19
219 42 19
220 42 19
221 42 19
222 -35 5
223 -35 5
224 -35 5
225 -35 5
226 -35 5
227 49 25
228 49 25
229 49 25
230 1 19
231 1 19
232 1 19
233 1 19
234 1 19
235 -50 -16
236 -50 -16
237 -50 -16
238 -50 -16
239 -50 -16
240 -50 -16
241 -45 14
242 -45 14
243 -45 14
244 -45 14
245 -45 14
246 -45 14
247 -45 14
248 -16 -41
249 -16 -41
250 -16 -41
251 -16 -41
252 44 11
253 44 11
254 44 11
255 44 11
256 -39 -10
257 -39 -10
258 -39 -10
259 -39 -10
260 -39 -10
261 40 -38
262 40 -38
263 40 -38
264 38 -48
265 38 -48
266 38 -48
267 38 -48
268 22 50
269 22 50
270 22 50
271 22 50
272 21 -29
273 21 -29
274 21 -29
275 21 -29
276 21 -29
277 -42 1
278 -42 1
279 -42 1
280 17 24
281 17 24
282 -25 -18
283 -25 -18
284 -25 -18
285 -25 -18
286 -25 -18
287 28 23
288 28 23
289 28 23
290 28 23
291 28 23
292 -10 45
293 -10 45
294 9 -42
295 9 -42
296 9 -42
297 7 -33
298 7 -33
299 1 32
300 1 32
301 1 32
302 1 32
303 1 32
304 -22 -33
305 -22 -33
306 -22 -33
307 -22 -33
308 -22 -33
309 -22 -33
310 -22 -33
311 -42 38
312 -42 38
313 -42 38
314 -42 38
315 -42 38
316 -42 38
317 9 39
318 9 39
319 9 39
320 9 39
321 9 39
322 9 39
323 26 11
324 23 3
325 23 3
326 23 3
327 23 3
328 23 3
329 23 3
330 23 3
331 -4 -19
332 -4 -19
333 -4 -19
334 -4 -19
335 -4 -19
336 -4 -19
337 -4 -19
338 -4 -19
339 49 12
340 49 12
341 49 12
342 49 12
343 49 12
344 -15 27
345 -15 27
346 -15 27
347 -15 27
348 -15 27
349 -15 27
350 -15 27
351 -26 28
352 -26 28
353 -26 28
354 -26 28
355 -6 -2
356 -6 -2
357 -6 -2
358 -6 -2
359 -6 -2
360 -30 31
361 -30 31
362 39 -12
363 39 -12
364 39 -12
365 39 -12
366 50 29
367 50 29
368 50 29
369 4 27
370 4 27
371 4 27
372 -31 -38
373 -31 -38
374 -31 -38
375 -31 -38
376 -31 -38
377 -31 -38
378 -31 -38
379 -25 32
380 -25 32
381 -25 32
382 -25 32
383 -25 32
384 -25 32
385 -25 32
386 -25 32
387 -41 9
388 -41 9
389 -41 9
390 -41 9
391 -41 9
392 -41 9
393 -41 9
394 -28 -39
395 -28 -39
396 -28 -39
397 -28 -39
398 -28 -39
399 -25 14
400 -25 14
401 -25 14
402 -25 14
403 -25 14
404 3 39
405 3 39
406 3 39
407 3 39
408 3 39
409 3 39
410 -44 29
411 -44 29
412 -44 29
413 -44 29
414 -44 29
415 -44 29
416 -44 29
417 -16 6
418 -16 6
419 -16 6
420 -16 6
421 -16 6
422 -16 6
423 15 16
424 15 16
425 15 16
426 15 16
427 15 16
428 -4 24
429 -4 24
430 -4 24
431 -4 24
432 -4 24
433 -4 24
434 29 -19
435 29 -19
436 29 -19
437 29 -19
438 29 -19
439 -32 8
440 -32 8
441 -32 8
442 -32 8
443 13 -43
444 13 -43
445 13 -43
446 13 -43
447 -40 -3
448 -40 -3
449 -40 -3
450 -40 -3
451 -40 -3
452 -40 -3
453 -12 -49
454 -12 -49
455 -24 -13
456 -24 -13
457 -24 -13
458 -24 -13
459 -24 -13
460 -24 -13
461 -24 -13
462 -24 -13
463 -36 29
464 -36 29
465 -36 29
466 -36 29
467 -36 29
468 -36 29
469 -38 -25
470 -38 -25
471 -38 -25
472 -38 -25
473 -38 -25
474 -38 -25
475 -48 -48
476 -48 -48
477 -36 -42
478 -36 -42
479 -36 -42
480 -36 -42
481 -36 -42
482 -36 -42
483 -36 -42
484 -36 -42
485 -24 -35
486 -24 -35
487 -24 -35
488 -24 -35
489 -24 -35
490 -24 -35
491 -24 -35
DEMAND_SECTION
1 0
2 40
3 2
4 2
5 2
6 40
7 20
8 10
9 2
10 1
11 40
12 20
13 10
14 2
15 2
16 2
17 2
18 1
19 40
20 20
21 10
22 2
23 2
24 2
25 2
26 1
27 40
28 20
29 10
30 2
31 2
32 2
33 1
34 40
35 40
36 2
37 2
38 2
39 2
40 40
41 40
42 10
43 2
44 2
45 2
46 40
47 40
48 2
49 2
50 2
51 40
52 20
53 2
54 2
55 2
56 2
57 20
58 2
59 2
60 2
61 40
62 20
63 10
64 2
65 2
66 2
67 20
68 10
69 2
70 2
71 2
72 2
73 40
74 20
75 10
76 2
77 2
78 40
79 20
80 40
81 40
82 10
83 2
84 1
85 40
86 20
87 10
88 2
89 2
90 2
91 2
92 1
93 40
94 40
95 2
96 2
97 2
98 40
99 40
100 10
101 2
102 2
103 2
104 1
105 20
106 10
107 1
108 40
109 20
110 10
111 40
112 40
113 2
114 2
115 2
116 40
117 2
118 2
119 2
120 20
121 2
122 2
123 2
124 2
125 40
126 20
127 40
128 40
129 20
130 40
131 40
132 10
133 2
134 2
135 2
136 2
137 40
138 20
139 2
140 2
141 2
142 1
143 40
144 40
145 10
146 2
147 2
148 40
149 20
150 10
151 2
152 2
153 2
154 2
155 20
156 10
157 2
158 2
159 1
160 20
161 2
162 2
163 2
164 2
165 40
166 20
167 10
168 2
169 40
170 40
171 20
172 40
173 40
174 10
175 2
176 2
177 20
178 2
179 2
180 1
181 40
182 10
183 2
184 2
185 2
186 40
187 2
188 2
189 1
190 40
191 40
192 2
193 40
194 20
195 10
196 2
197 2
198 2
199 1
200 40
201 20
202 10
203 2
204 2
205 20
206 10
207 1
208 40
209 2
210 2
211 2
212 40
213 40
214 2
215 2
216 40
217 10
218 2
219 2
220 2
221 1
222 20
223 2
224 2
225 2
226 1
227 20
228 10
229 1
230 40
231 2
232 2
233 2
234 2
235 40
236 40
237 10
238 2
239 2
240 2
241 40
242 10
243 2
244 2
245 2
246 2
247 1
248 40
249 40
250 2
251 2
252 40
253 40
254 2
255 1
256 40
257 40
258 10
259 2
260 1
261 40
262 40
263 1
264 20
265 2
266 2
267 1
268 40
269 20
270 10
271 2
272 40
273 20
274 2
275 2
276 1
277 40
278 20
279 1
280 40
281 20
282 40
283 2
284 2
285 2
286 1
287 40
288 40
289 10
290 2
291 1
292 40
293 10
294 40
295 40
296 20
297 40
298 2
299 40
300 40
301 10
302 2
303 2
304 40
305 10
306 2
307 2
308 2
309 2
310 1
311 40
312 20
313 2
314 2
315 2
316 2
317 40
318 40
319 10
320 2
321 2
322 1
323 40
324 40
325 40
326 10
327 2
328 2
329 2
330 1
331 40
332 40
333 10
334 2
335 2
336 2
337 2
338 1
339 20
340 10
341 2
342 2
343 2
344 40
345 10
346 2
347 2
348 2
349 2
350 1
351 20
352 10
353 2
354 1
355 40
356 2
357 2
358 2
359 2
360 40
361 10
362 40
363 40
364 2
365 2
366 40
367 20
368 10
369 40
370 2
371 2
372 40
373 20
374 10
375 2
376 2
377 2
378 2
379 40
380 40
381 10
382 2
383 2
384 2
385 2
386 1
387 40
388 10
389 2
390 2
391 2
392 2
393 1
394 40
395 40
396 2
397 2
398 2
399 20
400 2
401 2
402 2
403 1
404 40
405 40
406 10
407 2
408 2
409 2
410 40
411 20
412 10
413 2
414 2
415 2
416 2
417 40
418 2
419 2
420 2
421 2
422 1
423 20
424 2
425 2
426 2
427 2
428 40
429 20
430 10
431 2
432 2
433 1
434 20
435 10
436 2
437 2
438 2
439 40
440 40
441 2
442 1
443 40
444 40
445 2
446 1
447 40
448 20
449 2
450 2
451 2
452 1
453 40
454 1
455 40
456 20
457 10
458 2
459 2
460 2
461 2
462 1
463 40
464 40
465 2
466 2
467 2
468 1
469 40
470 40
471 2
472 2
473 2
474 1
475 40
476 10
477 40
478 20
479 10
480 2
481 2
482 2
483 2
484 1
485 40
486 20
487 10
488 2
489 2
490 2
491 2
DEPOT_SECTION
1
-1
EOF