SDVRP instances/custom_instances/p03_16_split0.sol
490 -1 3 2 4 427 429 428 346 345 343 344 57 59 58 56 -10 479 482 480 477 478 483 481 476 74 72 76 75 73 308 305 306 -14 17 16 15 12 11 13 79 80 169 170 -24 18 19 23 22 21 20 25 211 212 213 214 157 154 156 155 158 -27 31 30 29 32 28 26 381 379 383 385 382 378 380 384 350 353 -39 43 44 40 42 362 361 364 363 120 121 119 122 123 -41 189 191 190 165 166 167 164 433 436 434 435 437 -52 50 51 398 399 400 200 199 201 203 202 416 -53 55 54 402 401 77 78 243 241 240 246 245 244 242 388 392 391 387 390 386 389 -81 83 82 233 204 205 206 406 403 407 408 404 405 319 320 316 318 -90 88 89 86 91 85 84 87 145 144 146 143 142 -97 98 95 94 96 92 93 104 105 106 -101 102 99 103 100 334 332 336 337 333 330 331 111 113 112 114 110 -118 117 115 116 322 325 327 329 326 324 323 328 -125 124 338 342 341 339 340 254 251 253 252 -151 150 147 148 153 45 46 49 47 48 357 356 358 354 355 -152 149 277 276 278 221 224 222 223 225 438 439 440 441 420 418 421 419 417 -168 231 230 229 232 298 302 300 299 301 176 -174 172 173 171 175 263 266 265 264 262 261 260 -178 179 177 270 267 269 268 66 71 67 69 68 70 317 321 369 370 368 -194 192 452 453 128 126 127 335 -198 196 197 195 193 249 248 250 247 485 486 488 487 490 304 303 307 309 -216 215 217 220 219 218 226 228 227 365 367 366 287 -237 239 235 234 236 238 64 63 65 61 60 62 447 448 451 450 -271 274 273 272 275 34 33 38 35 36 37 296 297 -279 280 183 184 182 180 181 290 288 289 286 423 422 425 426 424 -282 284 470 473 472 471 468 469 210 207 209 208 187 188 186 185 458 457 456 460 -285 281 283 129 131 130 135 133 132 134 475 474 374 377 376 -295 293 294 445 442 444 443 -349 348 347 108 109 107 136 141 139 137 140 138 291 292 430 431 432 -352 351 161 160 159 162 163 5 9 7 8 6 466 465 467 462 464 463 -359 360 315 313 312 310 314 311 410 415 411 413 414 409 412 -373 372 375 371 393 394 396 397 395 484 489 -446 449 255 258 259 257 256 455 461 459 454 0 





OBJ=
3080.453
BEST_KNOWN=
0.000